p cnf 472 1464
a 2 3 4 5 6 7 8 12 17 19 24 29 34 37 38 45 46 50 54 55 58 62 66 68 70 72 74 75 79 83 85 89 93 98 100 0
e 1 9 10 11 13 14 15 16 18 20 21 22 23 25 26 27 28 30 31 32 33 35 36 39 40 41 42 43 44 47 48 49 51 52 53 56 57 59 60 61 63 64 65 67 69 71 73 76 77 78 80 81 82 84 86 87 88 90 91 92 94 95 96 97 99 101 102 103 104 105 106 107 108 109 110 111 112 113 114 115 116 117 118 119 120 121 122 123 124 125 126 127 128 129 130 131 132 133 134 135 136 137 138 139 140 141 142 143 144 145 146 147 148 149 150 151 152 153 154 155 156 157 158 159 160 161 162 163 164 165 166 167 168 169 170 171 172 173 174 175 176 177 178 179 180 181 182 183 184 185 186 187 188 189 190 191 192 193 194 195 196 197 198 199 200 201 202 203 204 205 206 207 208 209 210 211 212 213 214 215 216 217 218 219 220 221 222 223 224 225 226 227 228 229 230 231 232 233 234 235 236 237 238 239 240 241 242 243 244 245 246 247 248 249 250 251 252 253 254 255 256 257 258 259 260 261 262 263 264 265 266 267 268 269 270 271 272 273 274 275 276 277 278 279 280 281 282 283 284 285 286 287 288 289 290 291 292 293 294 295 296 297 298 299 300 301 302 303 304 305 306 307 308 309 310 311 312 313 314 315 316 317 318 319 320 321 322 323 324 325 326 327 328 329 330 331 332 333 334 335 336 337 338 339 340 341 342 343 344 345 346 347 348 349 350 351 352 353 354 355 356 357 358 359 360 361 362 363 364 365 366 367 368 369 370 371 372 373 374 375 376 377 378 379 380 381 382 383 384 385 386 387 388 389 390 391 392 393 394 395 396 397 398 399 400 401 402 403 404 405 406 407 408 409 410 411 412 413 414 415 416 417 418 419 420 421 422 423 424 425 426 427 428 429 430 431 432 433 434 435 436 437 438 439 440 441 442 443 444 445 446 447 448 449 450 451 452 453 454 455 456 457 458 459 460 461 462 463 464 465 466 467 468 469 470 471 472 0
1 0
7 -9 0
8 -9 0
-7 -8 9 0
7 -10 0
-8 -10 0
-7 8 10 0
7 11 0
-9 11 0
-10 11 0
-7 9 10 -11 0
-12 13 0
12 13 0
6 -14 0
11 -14 0
13 -14 0
-6 -11 -13 14 0
-6 -15 0
11 -15 0
6 -11 15 0
-14 16 0
-15 16 0
14 15 -16 0
-17 18 0
17 18 0
-19 20 0
19 20 0
5 -21 0
16 -21 0
18 -21 0
20 -21 0
-5 -16 -18 -20 21 0
-5 -22 0
16 -22 0
18 -22 0
5 -16 -18 22 0
-21 23 0
-22 23 0
21 22 -23 0
24 25 0
-24 25 0
4 -26 0
23 -26 0
25 -26 0
-4 -23 -25 26 0
-4 -27 0
23 -27 0
4 -23 27 0
-26 28 0
-27 28 0
26 27 -28 0
29 30 0
-29 30 0
3 -31 0
28 -31 0
30 -31 0
-3 -28 -30 31 0
-3 -32 0
28 -32 0
3 -28 32 0
-31 33 0
-32 33 0
31 32 -33 0
34 35 0
-34 35 0
2 -36 0
33 -36 0
35 -36 0
-2 -33 -35 36 0
38 39 0
-38 39 0
37 -40 0
33 -40 0
39 -40 0
-37 -33 -39 40 0
-37 -41 0
33 -41 0
37 -33 41 0
-40 42 0
-41 42 0
40 41 -42 0
-2 -43 0
42 -43 0
2 -42 43 0
-36 44 0
-43 44 0
36 43 -44 0
45 -47 0
46 -47 0
-45 -46 47 0
45 -48 0
-46 -48 0
-45 46 48 0
-47 49 0
-48 49 0
47 48 -49 0
49 -51 0
50 -51 0
-49 -50 51 0
49 -52 0
-50 -52 0
-49 50 52 0
-51 53 0
-52 53 0
51 52 -53 0
53 -56 0
-54 -56 0
55 -56 0
-53 54 -55 56 0
53 -57 0
-54 -57 0
-55 -57 0
-53 54 55 57 0
53 -59 0
54 -59 0
58 -59 0
-53 -54 -58 59 0
53 -60 0
54 -60 0
-58 -60 0
-53 -54 58 60 0
-56 61 0
-57 61 0
-59 61 0
-60 61 0
56 57 59 60 -61 0
61 -63 0
62 -63 0
-61 -62 63 0
61 -64 0
-62 -64 0
-61 62 64 0
-63 65 0
-64 65 0
63 64 -65 0
65 -67 0
66 -67 0
-65 -66 67 0
65 -69 0
-66 -69 0
68 -69 0
-65 66 -68 69 0
65 -71 0
-66 -71 0
-68 -71 0
70 -71 0
-65 66 68 -70 71 0
65 -73 0
-66 -73 0
-68 -73 0
-70 -73 0
72 -73 0
-65 66 68 70 -72 73 0
65 -76 0
-66 -76 0
-68 -76 0
-70 -76 0
-72 -76 0
74 -76 0
75 -76 0
-65 66 68 70 72 -74 -75 76 0
65 -77 0
-66 -77 0
-68 -77 0
-70 -77 0
-72 -77 0
74 -77 0
-75 -77 0
-65 66 68 70 72 -74 75 77 0
-76 78 0
-77 78 0
76 77 -78 0
78 -80 0
79 -80 0
-78 -79 80 0
78 -81 0
-79 -81 0
-78 79 81 0
-80 82 0
-81 82 0
80 81 -82 0
82 -84 0
83 -84 0
-82 -83 84 0
65 -86 0
-66 -86 0
-68 -86 0
-70 -86 0
-72 -86 0
-74 -86 0
85 -86 0
-65 66 68 70 72 74 -85 86 0
65 -87 0
-66 -87 0
-68 -87 0
-70 -87 0
-72 -87 0
-74 -87 0
-85 -87 0
-65 66 68 70 72 74 85 87 0
-86 88 0
-87 88 0
86 87 -88 0
88 -90 0
89 -90 0
-88 -89 90 0
88 -91 0
-89 -91 0
-88 89 91 0
-90 92 0
-91 92 0
90 91 -92 0
92 -94 0
93 -94 0
-92 -93 94 0
82 -95 0
-83 -95 0
-82 83 95 0
92 -96 0
-93 -96 0
-92 93 96 0
-84 97 0
-94 97 0
-95 97 0
-96 97 0
84 94 95 96 -97 0
97 -99 0
-98 -99 0
-97 98 99 0
97 -101 0
98 -101 0
100 -101 0
-97 -98 -100 101 0
97 -102 0
98 -102 0
-100 -102 0
-97 -98 100 102 0
45 103 0
-67 103 0
-69 103 0
-71 103 0
-73 103 0
-99 103 0
-101 103 0
-102 103 0
-45 67 69 71 73 99 101 102 -103 0
44 -104 0
103 -104 0
-44 -103 104 0
-12 105 0
12 105 0
6 -106 0
105 -106 0
-6 -105 106 0
-106 107 0
6 107 0
106 -6 -107 0
107 -108 0
19 -108 0
-107 -19 108 0
107 -109 0
-19 -109 0
-107 19 109 0
-108 110 0
-109 110 0
108 109 -110 0
5 -111 0
110 -111 0
-5 -110 111 0
-5 -112 0
107 -112 0
5 -107 112 0
-111 113 0
-112 113 0
111 112 -113 0
113 -114 0
-24 -114 0
-113 24 114 0
113 -115 0
24 -115 0
-113 -24 115 0
-114 116 0
-115 116 0
114 115 -116 0
4 -117 0
116 -117 0
-4 -116 117 0
-4 -118 0
113 -118 0
4 -113 118 0
-117 119 0
-118 119 0
117 118 -119 0
119 -120 0
-29 -120 0
-119 29 120 0
119 -121 0
29 -121 0
-119 -29 121 0
-120 122 0
-121 122 0
120 121 -122 0
3 -123 0
122 -123 0
-3 -122 123 0
-3 -124 0
119 -124 0
3 -119 124 0
-123 125 0
-124 125 0
123 124 -125 0
125 -126 0
-34 -126 0
-125 34 126 0
125 -127 0
34 -127 0
-125 -34 127 0
-126 128 0
-127 128 0
126 127 -128 0
2 -129 0
128 -129 0
-2 -128 129 0
125 -130 0
-38 -130 0
-125 38 130 0
125 -131 0
38 -131 0
-125 -38 131 0
-130 132 0
-131 132 0
130 131 -132 0
37 -133 0
132 -133 0
-37 -132 133 0
-37 -134 0
125 -134 0
37 -125 134 0
-133 135 0
-134 135 0
133 134 -135 0
-2 -136 0
135 -136 0
2 -135 136 0
-129 137 0
-136 137 0
129 136 -137 0
137 -138 0
-45 -138 0
-137 45 138 0
137 -139 0
45 -139 0
46 -139 0
-137 -45 -46 139 0
137 -140 0
45 -140 0
-46 -140 0
-137 -45 46 140 0
-139 141 0
-140 141 0
139 140 -141 0
141 -142 0
49 -142 0
50 -142 0
-141 -49 -50 142 0
141 -143 0
49 -143 0
-50 -143 0
-141 -49 50 143 0
-142 144 0
-143 144 0
142 143 -144 0
144 -145 0
61 -145 0
62 -145 0
-144 -61 -62 145 0
144 -146 0
61 -146 0
-62 -146 0
-144 -61 62 146 0
-145 147 0
-146 147 0
145 146 -147 0
-67 148 0
-69 148 0
-71 148 0
-73 148 0
67 69 71 73 -148 0
147 -149 0
148 -149 0
-147 -148 149 0
147 -150 0
65 -150 0
-66 -150 0
-68 -150 0
-70 -150 0
-72 -150 0
-74 -150 0
85 -150 0
-147 -65 66 68 70 72 74 -85 150 0
147 -151 0
65 -151 0
-66 -151 0
-68 -151 0
-70 -151 0
-72 -151 0
-74 -151 0
-85 -151 0
-147 -65 66 68 70 72 74 85 151 0
-150 152 0
-151 152 0
150 151 -152 0
152 -153 0
88 -153 0
89 -153 0
-152 -88 -89 153 0
152 -154 0
88 -154 0
-89 -154 0
-152 -88 89 154 0
-153 155 0
-154 155 0
153 154 -155 0
155 -156 0
92 -156 0
93 -156 0
-155 -92 -93 156 0
155 -157 0
92 -157 0
-93 -157 0
-155 -92 93 157 0
147 -158 0
65 -158 0
-66 -158 0
-68 -158 0
-70 -158 0
-72 -158 0
74 -158 0
75 -158 0
-147 -65 66 68 70 72 -74 -75 158 0
147 -159 0
65 -159 0
-66 -159 0
-68 -159 0
-70 -159 0
-72 -159 0
74 -159 0
-75 -159 0
-147 -65 66 68 70 72 -74 75 159 0
-158 160 0
-159 160 0
158 159 -160 0
160 -161 0
78 -161 0
79 -161 0
-160 -78 -79 161 0
160 -162 0
78 -162 0
-79 -162 0
-160 -78 79 162 0
-161 163 0
-162 163 0
161 162 -163 0
163 -164 0
82 -164 0
83 -164 0
-163 -82 -83 164 0
163 -165 0
82 -165 0
-83 -165 0
-163 -82 83 165 0
-156 166 0
-157 166 0
-164 166 0
-165 166 0
156 157 164 165 -166 0
-101 167 0
-102 167 0
101 102 -167 0
-99 168 0
-167 168 0
99 167 -168 0
166 -169 0
168 -169 0
-166 -168 169 0
-138 170 0
-149 170 0
-169 170 0
138 149 169 -170 0
-12 171 0
12 171 0
6 -172 0
171 -172 0
-6 -171 172 0
-172 173 0
6 173 0
172 -6 -173 0
173 -174 0
19 -174 0
-173 -19 174 0
173 -175 0
-19 -175 0
-173 19 175 0
-174 176 0
-175 176 0
174 175 -176 0
5 -177 0
176 -177 0
-5 -176 177 0
-5 -178 0
173 -178 0
5 -173 178 0
-177 179 0
-178 179 0
177 178 -179 0
179 -180 0
-24 -180 0
-179 24 180 0
179 -181 0
24 -181 0
-179 -24 181 0
-180 182 0
-181 182 0
180 181 -182 0
4 -183 0
182 -183 0
-4 -182 183 0
-4 -184 0
179 -184 0
4 -179 184 0
-183 185 0
-184 185 0
183 184 -185 0
185 -186 0
-29 -186 0
-185 29 186 0
185 -187 0
29 -187 0
-185 -29 187 0
-186 188 0
-187 188 0
186 187 -188 0
3 -189 0
188 -189 0
-3 -188 189 0
-3 -190 0
185 -190 0
3 -185 190 0
-189 191 0
-190 191 0
189 190 -191 0
191 -192 0
-34 -192 0
-191 34 192 0
191 -193 0
34 -193 0
-191 -34 193 0
-192 194 0
-193 194 0
192 193 -194 0
2 -195 0
194 -195 0
-2 -194 195 0
191 -196 0
-38 -196 0
-191 38 196 0
191 -197 0
38 -197 0
-191 -38 197 0
-196 198 0
-197 198 0
196 197 -198 0
37 -199 0
198 -199 0
-37 -198 199 0
-37 -200 0
191 -200 0
37 -191 200 0
-199 201 0
-200 201 0
199 200 -201 0
-2 -202 0
201 -202 0
2 -201 202 0
-195 203 0
-202 203 0
195 202 -203 0
203 -204 0
-45 -204 0
-203 45 204 0
203 -205 0
45 -205 0
46 -205 0
-203 -45 -46 205 0
203 -206 0
45 -206 0
-46 -206 0
-203 -45 46 206 0
-205 207 0
-206 207 0
205 206 -207 0
207 -208 0
49 -208 0
50 -208 0
-207 -49 -50 208 0
207 -209 0
49 -209 0
-50 -209 0
-207 -49 50 209 0
-208 210 0
-209 210 0
208 209 -210 0
210 -211 0
61 -211 0
62 -211 0
-210 -61 -62 211 0
210 -212 0
61 -212 0
-62 -212 0
-210 -61 62 212 0
-211 213 0
-212 213 0
211 212 -213 0
-67 214 0
-69 214 0
-71 214 0
-73 214 0
67 69 71 73 -214 0
213 -215 0
214 -215 0
-213 -214 215 0
213 -216 0
65 -216 0
-66 -216 0
-68 -216 0
-70 -216 0
-72 -216 0
-74 -216 0
85 -216 0
-213 -65 66 68 70 72 74 -85 216 0
213 -217 0
65 -217 0
-66 -217 0
-68 -217 0
-70 -217 0
-72 -217 0
-74 -217 0
-85 -217 0
-213 -65 66 68 70 72 74 85 217 0
-216 218 0
-217 218 0
216 217 -218 0
218 -219 0
88 -219 0
89 -219 0
-218 -88 -89 219 0
218 -220 0
88 -220 0
-89 -220 0
-218 -88 89 220 0
-219 221 0
-220 221 0
219 220 -221 0
221 -222 0
92 -222 0
93 -222 0
-221 -92 -93 222 0
221 -223 0
92 -223 0
-93 -223 0
-221 -92 93 223 0
213 -224 0
65 -224 0
-66 -224 0
-68 -224 0
-70 -224 0
-72 -224 0
74 -224 0
75 -224 0
-213 -65 66 68 70 72 -74 -75 224 0
213 -225 0
65 -225 0
-66 -225 0
-68 -225 0
-70 -225 0
-72 -225 0
74 -225 0
-75 -225 0
-213 -65 66 68 70 72 -74 75 225 0
-224 226 0
-225 226 0
224 225 -226 0
226 -227 0
78 -227 0
79 -227 0
-226 -78 -79 227 0
226 -228 0
78 -228 0
-79 -228 0
-226 -78 79 228 0
-227 229 0
-228 229 0
227 228 -229 0
229 -230 0
82 -230 0
83 -230 0
-229 -82 -83 230 0
229 -231 0
82 -231 0
-83 -231 0
-229 -82 83 231 0
-222 232 0
-223 232 0
-230 232 0
-231 232 0
222 223 230 231 -232 0
-99 233 0
-167 233 0
99 167 -233 0
232 -234 0
233 -234 0
-232 -233 234 0
-204 235 0
-215 235 0
-234 235 0
204 215 234 -235 0
241 -243 0
242 -243 0
-241 -242 243 0
241 -244 0
-242 -244 0
-241 242 244 0
241 245 0
-243 245 0
-244 245 0
-241 243 244 -245 0
-246 247 0
246 247 0
240 -248 0
245 -248 0
247 -248 0
-240 -245 -247 248 0
-240 -249 0
245 -249 0
240 -245 249 0
-248 250 0
-249 250 0
248 249 -250 0
-251 252 0
251 252 0
-253 254 0
253 254 0
239 -255 0
250 -255 0
252 -255 0
254 -255 0
-239 -250 -252 -254 255 0
-239 -256 0
250 -256 0
252 -256 0
239 -250 -252 256 0
-255 257 0
-256 257 0
255 256 -257 0
258 259 0
-258 259 0
238 -260 0
257 -260 0
259 -260 0
-238 -257 -259 260 0
-238 -261 0
257 -261 0
238 -257 261 0
-260 262 0
-261 262 0
260 261 -262 0
263 264 0
-263 264 0
237 -265 0
262 -265 0
264 -265 0
-237 -262 -264 265 0
-237 -266 0
262 -266 0
237 -262 266 0
-265 267 0
-266 267 0
265 266 -267 0
268 269 0
-268 269 0
236 -270 0
267 -270 0
269 -270 0
-236 -267 -269 270 0
272 273 0
-272 273 0
271 -274 0
267 -274 0
273 -274 0
-271 -267 -273 274 0
-271 -275 0
267 -275 0
271 -267 275 0
-274 276 0
-275 276 0
274 275 -276 0
-236 -277 0
276 -277 0
236 -276 277 0
-270 278 0
-277 278 0
270 277 -278 0
279 -281 0
280 -281 0
-279 -280 281 0
279 -282 0
-280 -282 0
-279 280 282 0
-281 283 0
-282 283 0
281 282 -283 0
283 -285 0
284 -285 0
-283 -284 285 0
283 -286 0
-284 -286 0
-283 284 286 0
-285 287 0
-286 287 0
285 286 -287 0
287 -290 0
-288 -290 0
289 -290 0
-287 288 -289 290 0
287 -291 0
-288 -291 0
-289 -291 0
-287 288 289 291 0
287 -293 0
288 -293 0
292 -293 0
-287 -288 -292 293 0
287 -294 0
288 -294 0
-292 -294 0
-287 -288 292 294 0
-290 295 0
-291 295 0
-293 295 0
-294 295 0
290 291 293 294 -295 0
295 -297 0
296 -297 0
-295 -296 297 0
295 -298 0
-296 -298 0
-295 296 298 0
-297 299 0
-298 299 0
297 298 -299 0
299 -301 0
300 -301 0
-299 -300 301 0
299 -303 0
-300 -303 0
302 -303 0
-299 300 -302 303 0
299 -305 0
-300 -305 0
-302 -305 0
304 -305 0
-299 300 302 -304 305 0
299 -307 0
-300 -307 0
-302 -307 0
-304 -307 0
306 -307 0
-299 300 302 304 -306 307 0
299 -310 0
-300 -310 0
-302 -310 0
-304 -310 0
-306 -310 0
308 -310 0
309 -310 0
-299 300 302 304 306 -308 -309 310 0
299 -311 0
-300 -311 0
-302 -311 0
-304 -311 0
-306 -311 0
308 -311 0
-309 -311 0
-299 300 302 304 306 -308 309 311 0
-310 312 0
-311 312 0
310 311 -312 0
312 -314 0
313 -314 0
-312 -313 314 0
312 -315 0
-313 -315 0
-312 313 315 0
-314 316 0
-315 316 0
314 315 -316 0
316 -318 0
317 -318 0
-316 -317 318 0
299 -320 0
-300 -320 0
-302 -320 0
-304 -320 0
-306 -320 0
-308 -320 0
319 -320 0
-299 300 302 304 306 308 -319 320 0
299 -321 0
-300 -321 0
-302 -321 0
-304 -321 0
-306 -321 0
-308 -321 0
-319 -321 0
-299 300 302 304 306 308 319 321 0
-320 322 0
-321 322 0
320 321 -322 0
322 -324 0
323 -324 0
-322 -323 324 0
322 -325 0
-323 -325 0
-322 323 325 0
-324 326 0
-325 326 0
324 325 -326 0
326 -328 0
327 -328 0
-326 -327 328 0
316 -329 0
-317 -329 0
-316 317 329 0
326 -330 0
-327 -330 0
-326 327 330 0
-318 331 0
-328 331 0
-329 331 0
-330 331 0
318 328 329 330 -331 0
331 -333 0
-332 -333 0
-331 332 333 0
331 -335 0
332 -335 0
334 -335 0
-331 -332 -334 335 0
331 -336 0
332 -336 0
-334 -336 0
-331 -332 334 336 0
279 337 0
-301 337 0
-303 337 0
-305 337 0
-307 337 0
-333 337 0
-335 337 0
-336 337 0
-279 301 303 305 307 333 335 336 -337 0
278 -338 0
337 -338 0
-278 -337 338 0
-246 339 0
246 339 0
240 -340 0
339 -340 0
-240 -339 340 0
-340 341 0
240 341 0
340 -240 -341 0
341 -342 0
253 -342 0
-341 -253 342 0
341 -343 0
-253 -343 0
-341 253 343 0
-342 344 0
-343 344 0
342 343 -344 0
239 -345 0
344 -345 0
-239 -344 345 0
-239 -346 0
341 -346 0
239 -341 346 0
-345 347 0
-346 347 0
345 346 -347 0
347 -348 0
-258 -348 0
-347 258 348 0
347 -349 0
258 -349 0
-347 -258 349 0
-348 350 0
-349 350 0
348 349 -350 0
238 -351 0
350 -351 0
-238 -350 351 0
-238 -352 0
347 -352 0
238 -347 352 0
-351 353 0
-352 353 0
351 352 -353 0
353 -354 0
-263 -354 0
-353 263 354 0
353 -355 0
263 -355 0
-353 -263 355 0
-354 356 0
-355 356 0
354 355 -356 0
237 -357 0
356 -357 0
-237 -356 357 0
-237 -358 0
353 -358 0
237 -353 358 0
-357 359 0
-358 359 0
357 358 -359 0
359 -360 0
-268 -360 0
-359 268 360 0
359 -361 0
268 -361 0
-359 -268 361 0
-360 362 0
-361 362 0
360 361 -362 0
236 -363 0
362 -363 0
-236 -362 363 0
359 -364 0
-272 -364 0
-359 272 364 0
359 -365 0
272 -365 0
-359 -272 365 0
-364 366 0
-365 366 0
364 365 -366 0
271 -367 0
366 -367 0
-271 -366 367 0
-271 -368 0
359 -368 0
271 -359 368 0
-367 369 0
-368 369 0
367 368 -369 0
-236 -370 0
369 -370 0
236 -369 370 0
-363 371 0
-370 371 0
363 370 -371 0
371 -372 0
-279 -372 0
-371 279 372 0
371 -373 0
279 -373 0
280 -373 0
-371 -279 -280 373 0
371 -374 0
279 -374 0
-280 -374 0
-371 -279 280 374 0
-373 375 0
-374 375 0
373 374 -375 0
375 -376 0
283 -376 0
284 -376 0
-375 -283 -284 376 0
375 -377 0
283 -377 0
-284 -377 0
-375 -283 284 377 0
-376 378 0
-377 378 0
376 377 -378 0
378 -379 0
295 -379 0
296 -379 0
-378 -295 -296 379 0
378 -380 0
295 -380 0
-296 -380 0
-378 -295 296 380 0
-379 381 0
-380 381 0
379 380 -381 0
-301 382 0
-303 382 0
-305 382 0
-307 382 0
301 303 305 307 -382 0
381 -383 0
382 -383 0
-381 -382 383 0
381 -384 0
299 -384 0
-300 -384 0
-302 -384 0
-304 -384 0
-306 -384 0
-308 -384 0
319 -384 0
-381 -299 300 302 304 306 308 -319 384 0
381 -385 0
299 -385 0
-300 -385 0
-302 -385 0
-304 -385 0
-306 -385 0
-308 -385 0
-319 -385 0
-381 -299 300 302 304 306 308 319 385 0
-384 386 0
-385 386 0
384 385 -386 0
386 -387 0
322 -387 0
323 -387 0
-386 -322 -323 387 0
386 -388 0
322 -388 0
-323 -388 0
-386 -322 323 388 0
-387 389 0
-388 389 0
387 388 -389 0
389 -390 0
326 -390 0
327 -390 0
-389 -326 -327 390 0
389 -391 0
326 -391 0
-327 -391 0
-389 -326 327 391 0
381 -392 0
299 -392 0
-300 -392 0
-302 -392 0
-304 -392 0
-306 -392 0
308 -392 0
309 -392 0
-381 -299 300 302 304 306 -308 -309 392 0
381 -393 0
299 -393 0
-300 -393 0
-302 -393 0
-304 -393 0
-306 -393 0
308 -393 0
-309 -393 0
-381 -299 300 302 304 306 -308 309 393 0
-392 394 0
-393 394 0
392 393 -394 0
394 -395 0
312 -395 0
313 -395 0
-394 -312 -313 395 0
394 -396 0
312 -396 0
-313 -396 0
-394 -312 313 396 0
-395 397 0
-396 397 0
395 396 -397 0
397 -398 0
316 -398 0
317 -398 0
-397 -316 -317 398 0
397 -399 0
316 -399 0
-317 -399 0
-397 -316 317 399 0
-390 400 0
-391 400 0
-398 400 0
-399 400 0
390 391 398 399 -400 0
-335 401 0
-336 401 0
335 336 -401 0
-333 402 0
-401 402 0
333 401 -402 0
400 -403 0
402 -403 0
-400 -402 403 0
-372 404 0
-383 404 0
-403 404 0
372 383 403 -404 0
-246 405 0
246 405 0
240 -406 0
405 -406 0
-240 -405 406 0
-406 407 0
240 407 0
406 -240 -407 0
407 -408 0
253 -408 0
-407 -253 408 0
407 -409 0
-253 -409 0
-407 253 409 0
-408 410 0
-409 410 0
408 409 -410 0
239 -411 0
410 -411 0
-239 -410 411 0
-239 -412 0
407 -412 0
239 -407 412 0
-411 413 0
-412 413 0
411 412 -413 0
413 -414 0
-258 -414 0
-413 258 414 0
413 -415 0
258 -415 0
-413 -258 415 0
-414 416 0
-415 416 0
414 415 -416 0
238 -417 0
416 -417 0
-238 -416 417 0
-238 -418 0
413 -418 0
238 -413 418 0
-417 419 0
-418 419 0
417 418 -419 0
419 -420 0
-263 -420 0
-419 263 420 0
419 -421 0
263 -421 0
-419 -263 421 0
-420 422 0
-421 422 0
420 421 -422 0
237 -423 0
422 -423 0
-237 -422 423 0
-237 -424 0
419 -424 0
237 -419 424 0
-423 425 0
-424 425 0
423 424 -425 0
425 -426 0
-268 -426 0
-425 268 426 0
425 -427 0
268 -427 0
-425 -268 427 0
-426 428 0
-427 428 0
426 427 -428 0
236 -429 0
428 -429 0
-236 -428 429 0
425 -430 0
-272 -430 0
-425 272 430 0
425 -431 0
272 -431 0
-425 -272 431 0
-430 432 0
-431 432 0
430 431 -432 0
271 -433 0
432 -433 0
-271 -432 433 0
-271 -434 0
425 -434 0
271 -425 434 0
-433 435 0
-434 435 0
433 434 -435 0
-236 -436 0
435 -436 0
236 -435 436 0
-429 437 0
-436 437 0
429 436 -437 0
437 -438 0
-279 -438 0
-437 279 438 0
437 -439 0
279 -439 0
280 -439 0
-437 -279 -280 439 0
437 -440 0
279 -440 0
-280 -440 0
-437 -279 280 440 0
-439 441 0
-440 441 0
439 440 -441 0
441 -442 0
283 -442 0
284 -442 0
-441 -283 -284 442 0
441 -443 0
283 -443 0
-284 -443 0
-441 -283 284 443 0
-442 444 0
-443 444 0
442 443 -444 0
444 -445 0
295 -445 0
296 -445 0
-444 -295 -296 445 0
444 -446 0
295 -446 0
-296 -446 0
-444 -295 296 446 0
-445 447 0
-446 447 0
445 446 -447 0
-301 448 0
-303 448 0
-305 448 0
-307 448 0
301 303 305 307 -448 0
447 -449 0
448 -449 0
-447 -448 449 0
447 -450 0
299 -450 0
-300 -450 0
-302 -450 0
-304 -450 0
-306 -450 0
-308 -450 0
319 -450 0
-447 -299 300 302 304 306 308 -319 450 0
447 -451 0
299 -451 0
-300 -451 0
-302 -451 0
-304 -451 0
-306 -451 0
-308 -451 0
-319 -451 0
-447 -299 300 302 304 306 308 319 451 0
-450 452 0
-451 452 0
450 451 -452 0
452 -453 0
322 -453 0
323 -453 0
-452 -322 -323 453 0
452 -454 0
322 -454 0
-323 -454 0
-452 -322 323 454 0
-453 455 0
-454 455 0
453 454 -455 0
455 -456 0
326 -456 0
327 -456 0
-455 -326 -327 456 0
455 -457 0
326 -457 0
-327 -457 0
-455 -326 327 457 0
447 -458 0
299 -458 0
-300 -458 0
-302 -458 0
-304 -458 0
-306 -458 0
308 -458 0
309 -458 0
-447 -299 300 302 304 306 -308 -309 458 0
447 -459 0
299 -459 0
-300 -459 0
-302 -459 0
-304 -459 0
-306 -459 0
308 -459 0
-309 -459 0
-447 -299 300 302 304 306 -308 309 459 0
-458 460 0
-459 460 0
458 459 -460 0
460 -461 0
312 -461 0
313 -461 0
-460 -312 -313 461 0
460 -462 0
312 -462 0
-313 -462 0
-460 -312 313 462 0
-461 463 0
-462 463 0
461 462 -463 0
463 -464 0
316 -464 0
317 -464 0
-463 -316 -317 464 0
463 -465 0
316 -465 0
-317 -465 0
-463 -316 317 465 0
-456 466 0
-457 466 0
-464 466 0
-465 466 0
456 457 464 465 -466 0
-333 467 0
-401 467 0
333 401 -467 0
466 -468 0
467 -468 0
-466 -467 468 0
-438 469 0
-449 469 0
-468 469 0
438 449 468 -469 0
-404 -170 -470 0
404 170 -470 0
-404 170 470 0
404 -170 470 0
-469 -235 -471 0
469 235 -471 0
-469 235 471 0
469 -235 471 0
-470 -472 0
-471 -472 0
338 -472 0
470 471 -338 472 0
-104 472 0
